************************************************************************
file with basedata            : cr562_.bas
initial value random generator: 744643891
************************************************************************
projects                      :  1
jobs (incl. supersource/sink ):  18
horizon                       :  130
RESOURCES
  - renewable                 :  5   R
  - nonrenewable              :  2   N
  - doubly constrained        :  0   D
************************************************************************
PROJECT INFORMATION:
pronr.  #jobs rel.date duedate tardcost  MPM-Time
    1     16      0       18        2       18
************************************************************************
PRECEDENCE RELATIONS:
jobnr.    #modes  #successors   successors
   1        1          3           2   3   4
   2        3          2          14  15
   3        3          3           8   9  11
   4        3          3           5   6   7
   5        3          3           9  10  16
   6        3          3           9  10  16
   7        3          2          14  17
   8        3          2          12  13
   9        3          2          13  17
  10        3          2          11  13
  11        3          1          17
  12        3          2          14  15
  13        3          1          15
  14        3          1          16
  15        3          1          18
  16        3          1          18
  17        3          1          18
  18        1          0        
************************************************************************
REQUESTS/DURATIONS:
jobnr. mode duration  R 1  R 2  R 3  R 4  R 5  N 1  N 2
------------------------------------------------------------------------
  1      1     0       0    0    0    0    0    0    0
  2      1     3       9   10    7    9    7    5    8
         2     8       8   10    6    8    5    5    7
         3    10       8   10    4    5    1    3    7
  3      1     4       5    2    5    6   10   10    8
         2     7       5    1    4    6    9   10    7
         3    10       5    1    2    4    8    9    5
  4      1     1       8    6    9    4    8    7    7
         2     4       5    5    5    3    7    7    6
         3     9       3    2    5    2    7    7    2
  5      1     5       8    7    4    8    4    6    3
         2     8       5    7    3    6    3    5    3
         3     9       3    7    2    6    2    3    3
  6      1     3       7    8    8    7    8    6   10
         2     8       6    7    5    5    7    5    2
         3     8       6    7    5    7    8    3    3
  7      1     5       3    5    9    5    5    9    9
         2     6       3    4    7    5    5    8    7
         3     8       2    4    5    4    4    4    4
  8      1     2       2    7    5    5    6    6    6
         2     5       2    4    4    4    5    6    5
         3    10       2    3    2    4    5    1    3
  9      1     4       9    5    5    4    8    8    2
         2     5       5    3    3    4    8    5    1
         3     8       3    3    1    3    7    3    1
 10      1     1       7    8    9    7    8   10    7
         2     3       6    8    9    5    6    9    6
         3     4       5    7    8    3    4    8    4
 11      1     3       9    9    8    8   10    5    9
         2     6       7    8    6    6    9    5    8
         3     7       1    8    6    4    9    5    8
 12      1     2       8    4    3   10   10    2    3
         2     7       6    4    2    7   10    2    2
         3     8       3    3    2    2   10    1    2
 13      1     3       6    8    5    6    6    6    6
         2     4       5    7    4    6    4    6    4
         3     5       4    5    2    2    2    5    4
 14      1     2       2   10    4    6    6    6    9
         2     6       2    8    4    5    6    4    9
         3    10       2    5    3    5    5    2    7
 15      1     5       5    7    5    5    5    9    9
         2     6       5    5    3    5    5    7    8
         3     7       3    3    3    3    4    6    7
 16      1     4       1    9    9    5    8    9    8
         2     7       1    7    9    4    4    8    5
         3     8       1    2    9    4    4    7    1
 17      1     4       8    5    6    9    7    3   10
         2     9       6    5    4    8    1    3   10
         3     9       8    5    6    7    4    3   10
 18      1     0       0    0    0    0    0    0    0
************************************************************************
RESOURCEAVAILABILITIES:
  R 1  R 2  R 3  R 4  R 5  N 1  N 2
   20   21   21   21   22  107  114
************************************************************************
